NAME conduction_srl_ilp
* Max problem is converted into Min one
ROWS
 N  OBJ
 L  constraint1_6340
 L  constraint1_3750
 L  constraint1_6000
 L  constraint1_2430
 L  constraint1_2431
 L  constraint2_6340
 L  constraint2_6341
 L  constraint2_6342
 L  constraint2_6343
 L  constraint2_3750
 L  constraint2_3751
 L  constraint2_3752
 L  constraint2_3753
 L  constraint2_6000
 L  constraint2_6001
 L  constraint2_6002
 L  constraint2_6003
 L  constraint2_2430
 L  constraint2_2431
 L  constraint2_2432
 L  constraint2_2433
COLUMNS
    MARKER    'MARKER'                 'INTORG'
    Z_634_0_0  OBJ       -1.5862016776674417e-01
    Z_634_0_0  constraint1_6340  1
    Z_634_0_0  constraint2_6340  1
    Z_634_0_1  OBJ       -6.1053280450142002e-02
    Z_634_0_1  constraint1_6340  1
    Z_634_0_1  constraint2_6341  1
    Z_634_0_2  OBJ       -3.6831925970076500e-02
    Z_634_0_2  constraint1_6340  1
    Z_634_0_2  constraint2_6342  1
    Z_634_0_3  OBJ       -6.2816735474569396e-02
    Z_634_0_3  constraint1_6340  1
    Z_634_0_3  constraint2_6343  1
    Z_375_0_0  OBJ       -4.0300631945545118e-03
    Z_375_0_0  constraint1_3750  1
    Z_375_0_0  constraint2_3750  1
    Z_375_0_1  OBJ       -5.2745236875198775e-02
    Z_375_0_1  constraint1_3750  1
    Z_375_0_1  constraint2_3751  1
    Z_375_0_2  OBJ       -1.7968414346116524e-01
    Z_375_0_2  constraint1_3750  1
    Z_375_0_2  constraint2_3752  1
    Z_375_0_3  OBJ       -1.0203462548539960e-02
    Z_375_0_3  constraint1_3750  1
    Z_375_0_3  constraint2_3753  1
    Z_600_0_0  OBJ       -6.7389279936515007e-04
    Z_600_0_0  constraint1_6000  1
    Z_600_0_0  constraint2_6000  1
    Z_600_0_1  OBJ       -3.7777820980005164e-02
    Z_600_0_1  constraint1_6000  1
    Z_600_0_1  constraint2_6001  1
    Z_600_0_2  OBJ       -6.5543798009888043e-01
    Z_600_0_2  constraint1_6000  1
    Z_600_0_2  constraint2_6002  1
    Z_600_0_3  OBJ       -1.0664032615590690e-02
    Z_600_0_3  constraint1_6000  1
    Z_600_0_3  constraint2_6003  1
    Z_243_0_0  OBJ       -1.9269568531342759e-01
    Z_243_0_0  constraint1_2430  1
    Z_243_0_0  constraint2_2430  1
    Z_243_0_1  OBJ       -6.8856060026951757e-02
    Z_243_0_1  constraint1_2430  1
    Z_243_0_1  constraint2_2431  1
    Z_243_0_2  OBJ       -3.6739913811368950e-02
    Z_243_0_2  constraint1_2430  1
    Z_243_0_2  constraint2_2432  1
    Z_243_0_3  OBJ       -2.9171510271044015e-02
    Z_243_0_3  constraint1_2430  1
    Z_243_0_3  constraint2_2433  1
    Z_243_1_0  OBJ       -3.8582250990791714e-03
    Z_243_1_0  constraint1_2431  1
    Z_243_1_0  constraint2_2430  1
    Z_243_1_1  OBJ       -1.1709170446605100e-02
    Z_243_1_1  constraint1_2431  1
    Z_243_1_1  constraint2_2431  1
    Z_243_1_2  OBJ       -7.8470076832356073e-01
    Z_243_1_2  constraint1_2431  1
    Z_243_1_2  constraint2_2432  1
    Z_243_1_3  OBJ       -7.7520938486371760e-03
    Z_243_1_3  constraint1_2431  1
    Z_243_1_3  constraint2_2433  1
    MARKER    'MARKER'                 'INTEND'
RHS
    RHS1      constraint1_6340  1
    RHS1      constraint1_3750  1
    RHS1      constraint1_6000  1
    RHS1      constraint1_2430  1
    RHS1      constraint1_2431  1
    RHS1      constraint2_6340  1
    RHS1      constraint2_6341  1
    RHS1      constraint2_6342  1
    RHS1      constraint2_6343  1
    RHS1      constraint2_3750  1
    RHS1      constraint2_3751  1
    RHS1      constraint2_3752  1
    RHS1      constraint2_3753  1
    RHS1      constraint2_6000  1
    RHS1      constraint2_6001  1
    RHS1      constraint2_6002  1
    RHS1      constraint2_6003  1
    RHS1      constraint2_2430  1
    RHS1      constraint2_2431  1
    RHS1      constraint2_2432  1
    RHS1      constraint2_2433  1
BOUNDS
 UP BND1      Z_634_0_0  1
 UP BND1      Z_634_0_1  1
 UP BND1      Z_634_0_2  1
 UP BND1      Z_634_0_3  1
 UP BND1      Z_375_0_0  1
 UP BND1      Z_375_0_1  1
 UP BND1      Z_375_0_2  1
 UP BND1      Z_375_0_3  1
 UP BND1      Z_600_0_0  1
 UP BND1      Z_600_0_1  1
 UP BND1      Z_600_0_2  1
 UP BND1      Z_600_0_3  1
 UP BND1      Z_243_0_0  1
 UP BND1      Z_243_0_1  1
 UP BND1      Z_243_0_2  1
 UP BND1      Z_243_0_3  1
 UP BND1      Z_243_1_0  1
 UP BND1      Z_243_1_1  1
 UP BND1      Z_243_1_2  1
 UP BND1      Z_243_1_3  1
QUADOBJ
    Z_600_0_0  Z_243_0_0  -2.2222222222222218e-04
    Z_600_0_1  Z_243_0_1  -2.2222222222222218e-04
    Z_600_0_2  Z_243_0_2  -2.2222222222222218e-04
    Z_600_0_3  Z_243_0_3  -2.2222222222222218e-04
ENDATA
